(benchmark gametime
:status unknown
:logic QF_AUFBV
:extrafuns ((gtINDEX67  BitVec[32]))
:extrafuns ((gtFIELD__bitsForTID0__gtAGG____anonstruct_D_Work_4  Array[32:32]))
:extrafuns ((gtINDEX68  BitVec[32]))
:extrafuns ((gtAGG__rtDWork  BitVec[32]))
:extrafuns ((gtINDEX65  BitVec[32]))
:extrafuns ((gtINDEX66  BitVec[32]))
:extrafuns ((gtINDEX63  BitVec[32]))
:extrafuns ((gtINDEX64  BitVec[32]))
:extrafuns ((gtINDEX61  BitVec[32]))
:extrafuns ((gtINDEX62  BitVec[32]))
:extrafuns ((gtINDEX60  BitVec[32]))
:extrafuns ((gtINDEX59  BitVec[32]))
:extrafuns ((gtINDEX58  BitVec[32]))
:extrafuns ((gtINDEX57  BitVec[32]))
:extrafuns ((gtINDEX55  BitVec[32]))
:extrafuns ((gtINDEX56  BitVec[32]))
:extrafuns ((gtINDEX53  BitVec[32]))
:extrafuns ((gtINDEX54  BitVec[32]))
:extrafuns ((gtINDEX51  BitVec[32]))
:extrafuns ((gtINDEX52  BitVec[32]))
:extrafuns ((gtINDEX49  BitVec[32]))
:extrafuns ((gtINDEX50  BitVec[32]))
:extrafuns ((gtINDEX47  BitVec[32]))
:extrafuns ((gtINDEX48  BitVec[32]))
:extrafuns ((gtINDEX45  BitVec[32]))
:extrafuns ((gtINDEX46  BitVec[32]))
:extrafuns ((gtINDEX43  BitVec[32]))
:extrafuns ((gtINDEX44  BitVec[32]))
:extrafuns ((gtINDEX41  BitVec[32]))
:extrafuns ((gtINDEX42  BitVec[32]))
:extrafuns ((gtINDEX39  BitVec[32]))
:extrafuns ((gtINDEX40  BitVec[32]))
:extrafuns ((gtINDEX37  BitVec[32]))
:extrafuns ((gtINDEX38  BitVec[32]))
:extrafuns ((gtINDEX36  BitVec[32]))
:extrafuns ((gtINDEX34  BitVec[32]))
:extrafuns ((gtINDEX35  BitVec[32]))
:extrafuns ((gtINDEX33  BitVec[32]))
:extrafuns ((gtINDEX31  BitVec[32]))
:extrafuns ((gtINDEX32  BitVec[32]))
:extrafuns ((gtINDEX29  BitVec[32]))
:extrafuns ((gtINDEX30  BitVec[32]))
:extrafuns ((gtINDEX28  BitVec[32]))
:extrafuns ((gtINDEX27  BitVec[32]))
:extrafuns ((gtINDEX26  BitVec[32]))
:extrafuns ((gtINDEX25  BitVec[32]))
:extrafuns ((gtINDEX24  BitVec[32]))
:extrafuns ((gtINDEX22  BitVec[32]))
:extrafuns ((gtINDEX23  BitVec[32]))
:extrafuns ((gtINDEX20  BitVec[32]))
:extrafuns ((gtINDEX21  BitVec[32]))
:extrafuns ((gtINDEX18  BitVec[32]))
:extrafuns ((gtINDEX19  BitVec[32]))
:extrafuns ((gtINDEX16  BitVec[32]))
:extrafuns ((gtINDEX17  BitVec[32]))
:extrafuns ((gtINDEX14  BitVec[32]))
:extrafuns ((gtINDEX15  BitVec[32]))
:extrafuns ((gtINDEX12  BitVec[32]))
:extrafuns ((gtINDEX13  BitVec[32]))
:extrafuns ((gtINDEX10  BitVec[32]))
:extrafuns ((gtINDEX11  BitVec[32]))
:extrafuns ((gtINDEX8  BitVec[32]))
:extrafuns ((gtINDEX9  BitVec[32]))
:extrafuns ((gtINDEX6  BitVec[32]))
:extrafuns ((gtINDEX7  BitVec[32]))
:extrafuns ((gtINDEX4  BitVec[32]))
:extrafuns ((gtINDEX5  BitVec[32]))
:extrafuns ((gtINDEX2  BitVec[32]))
:extrafuns ((gtINDEX3  BitVec[32]))
:extrafuns ((gtINDEX0  BitVec[32]))
:extrafuns ((gtINDEX1  BitVec[32]))
:extrafuns ((gtFIELD__is_Eng__gtAGG____anonstruct_bitsForTID0_5_1_  Array[32:1]))
:extrafuns ((gtFIELD__is_Eng__gtAGG____anonstruct_bitsForTID0_5_2_  Array[32:1]))
:extrafuns ((sf_previousEvent_1_  BitVec[32]))
:extrafuns ((sfEvent__2_  BitVec[32]))
:extrafuns ((gtFIELD__is_Eng__gtAGG____anonstruct_bitsForTID0_5  Array[32:1]))
:extrafuns ((gtFIELD__sent__gtAGG____anonstruct_D_Work_4_1_  Array[32:32]))
:extrafuns ((gtFIELD__sent__gtAGG____anonstruct_D_Work_4_2_  Array[32:32]))
:extrafuns ((gtFIELD__is_active_Eng__gtAGG____anonstruct_bitsForTID0_5  Array[32:1]))
:extrafuns ((gtFIELD__is_active_PURI__gtAGG____anonstruct_bitsForTID0_5  Array[32:1]))
:extrafuns ((gtFIELD__is_PVRP__gtAGG____anonstruct_bitsForTID0_5_1_  Array[32:2]))
:extrafuns ((gtFIELD__is_PVRP__gtAGG____anonstruct_bitsForTID0_5_2_  Array[32:2]))
:extrafuns ((gtFIELD__is_active_PVRP__gtAGG____anonstruct_bitsForTID0_5  Array[32:1]))
:extrafuns ((gtFIELD__is_active_PPVARP__gtAGG____anonstruct_bitsForTID0_5  Array[32:1]))
:extrafuns ((gtFIELD__is_active_PLRI__gtAGG____anonstruct_bitsForTID0_5  Array[32:1]))
:extrafuns ((gtFIELD__temporalCounter_i1__gtAGG____anonstruct_D_Work_4  Array[32:32]))
:extrafuns ((gtFIELD__temporalCounter_i1__gtAGG____anonstruct_D_Work_4_1_  Array[32:32]))
:extrafuns ((gtFIELD__is_PAVI__gtAGG____anonstruct_bitsForTID0_5  Array[32:3]))
:extrafuns ((gtFIELD__is_PAVI__gtAGG____anonstruct_bitsForTID0_5_1_  Array[32:3]))
:extrafuns ((gtFIELD__n_t__gtAGG____anonstruct_D_Work_4  Array[32:32]))
:extrafuns ((gtFIELD__n_t__gtAGG____anonstruct_D_Work_4_1_  Array[32:32]))
:extrafuns ((sfEvent__1_  BitVec[32]))
:extrafuns ((gtFIELD__is_active_PAVI__gtAGG____anonstruct_bitsForTID0_5  Array[32:1]))
:extrafuns ((sfEvent_  BitVec[32]))
:extrafuns ((gtFIELD__sent__gtAGG____anonstruct_D_Work_4  Array[32:32]))
:extrafuns ((gtFIELD__is_PVRP__gtAGG____anonstruct_bitsForTID0_5  Array[32:2]))
:extrapreds ((constraint116 ))
:extrapreds ((constraint115 ))
:extrapreds ((constraint114 ))
:extrapreds ((constraint113 ))
:extrapreds ((constraint112 ))
:extrapreds ((constraint111 ))
:extrapreds ((constraint110 ))
:extrapreds ((constraint109 ))
:extrapreds ((constraint108 ))
:extrapreds ((constraint107 ))
:extrapreds ((constraint106 ))
:extrapreds ((constraint105 ))
:extrapreds ((constraint104 ))
:extrapreds ((constraint103 ))
:extrapreds ((constraint102 ))
:extrapreds ((constraint101 ))
:extrapreds ((constraint100 ))
:extrapreds ((constraint99 ))
:extrapreds ((constraint98 ))
:extrapreds ((constraint97 ))
:extrapreds ((constraint96 ))
:extrapreds ((constraint95 ))
:extrapreds ((constraint94 ))
:extrapreds ((constraint93 ))
:extrapreds ((constraint92 ))
:extrapreds ((constraint91 ))
:extrapreds ((constraint90 ))
:extrapreds ((constraint89 ))
:extrapreds ((constraint88 ))
:extrapreds ((constraint87 ))
:extrapreds ((constraint86 ))
:extrapreds ((constraint85 ))
:extrapreds ((constraint84 ))
:extrapreds ((constraint83 ))
:extrapreds ((constraint82 ))
:extrapreds ((constraint81 ))
:extrapreds ((constraint80 ))
:extrapreds ((constraint79 ))
:extrapreds ((constraint78 ))
:extrapreds ((constraint77 ))
:extrapreds ((constraint76 ))
:extrapreds ((constraint75 ))
:extrapreds ((constraint74 ))
:extrapreds ((constraint73 ))
:extrapreds ((constraint72 ))
:extrapreds ((constraint71 ))
:extrapreds ((constraint70 ))
:extrapreds ((constraint69 ))
:extrapreds ((constraint68 ))
:extrapreds ((constraint67 ))
:extrapreds ((constraint66 ))
:extrapreds ((constraint65 ))
:extrapreds ((constraint64 ))
:extrapreds ((constraint63 ))
:extrapreds ((constraint62 ))
:extrapreds ((constraint61 ))
:extrapreds ((constraint60 ))
:extrapreds ((constraint59 ))
:extrapreds ((constraint58 ))
:extrapreds ((constraint57 ))
:extrapreds ((constraint56 ))
:extrapreds ((constraint55 ))
:extrapreds ((constraint54 ))
:extrapreds ((constraint53 ))
:extrapreds ((constraint52 ))
:extrapreds ((constraint51 ))
:extrapreds ((constraint50 ))
:extrapreds ((constraint49 ))
:extrapreds ((constraint48 ))
:extrapreds ((constraint47 ))
:extrapreds ((constraint46 ))
:extrapreds ((constraint45 ))
:extrapreds ((constraint44 ))
:extrapreds ((constraint43 ))
:extrapreds ((constraint42 ))
:extrapreds ((constraint41 ))
:extrapreds ((constraint40 ))
:extrapreds ((constraint39 ))
:extrapreds ((constraint38 ))
:extrapreds ((constraint37 ))
:extrapreds ((constraint36 ))
:extrapreds ((constraint35 ))
:extrapreds ((constraint34 ))
:extrapreds ((constraint33 ))
:extrapreds ((constraint32 ))
:extrapreds ((constraint31 ))
:extrapreds ((constraint30 ))
:extrapreds ((constraint29 ))
:extrapreds ((constraint28 ))
:extrapreds ((constraint27 ))
:extrapreds ((constraint26 ))
:extrapreds ((constraint25 ))
:extrapreds ((constraint24 ))
:extrapreds ((constraint23 ))
:extrapreds ((constraint22 ))
:extrapreds ((constraint21 ))
:extrapreds ((constraint20 ))
:extrapreds ((constraint19 ))
:extrapreds ((constraint18 ))
:extrapreds ((constraint17 ))
:extrapreds ((constraint16 ))
:extrapreds ((constraint15 ))
:extrapreds ((constraint14 ))
:extrapreds ((constraint13 ))
:extrapreds ((constraint12 ))
:extrapreds ((constraint11 ))
:extrapreds ((constraint10 ))
:extrapreds ((constraint9 ))
:extrapreds ((constraint8 ))
:extrapreds ((constraint7 ))
:extrapreds ((constraint6 ))
:extrapreds ((constraint5 ))
:extrapreds ((constraint4 ))
:extrapreds ((constraint3 ))
:extrapreds ((constraint2 ))
:extrapreds ((constraint1 ))
:extrapreds ((constraint0 ))
:formula
(flet ($x607 (and constraint0 constraint1 constraint2 constraint3 constraint4 constraint5 constraint6 constraint7 constraint8 constraint9 constraint10 constraint11 constraint12 constraint13 constraint14 constraint15 constraint16 constraint17 constraint18 constraint19 constraint20 constraint21 constraint22 constraint23 constraint24 constraint25 constraint26 constraint27 constraint28 constraint29 constraint30 constraint31 constraint32 constraint33 constraint34 constraint35 constraint36 constraint37 constraint38 constraint39 constraint40 constraint41 constraint42 constraint43 constraint44 constraint45 constraint46 constraint47 constraint48 constraint49 constraint50 constraint51 constraint52 constraint53 constraint54 constraint55 constraint56 constraint57 constraint58 constraint59 constraint60 constraint61 constraint62 constraint63 constraint64 constraint65 constraint66 constraint67 constraint68 constraint69 constraint70 constraint71 constraint72 constraint73 constraint74 constraint75 constraint76 constraint77 constraint78 constraint79 constraint80 constraint81 constraint82 constraint83 constraint84 constraint85 constraint86 constraint87 constraint88 constraint89 constraint90 constraint91 constraint92 constraint93 constraint94 constraint95 constraint96 constraint97 constraint98 constraint99 constraint100 constraint101 constraint102 constraint103 constraint104 constraint105 constraint106 constraint107 constraint108 constraint109 constraint110 constraint111 constraint112 constraint113 constraint114 constraint115 constraint116))
(flet ($x371 (= gtINDEX68 (select gtFIELD__bitsForTID0__gtAGG____anonstruct_D_Work_4 gtINDEX67)))
(flet ($x367 (= gtINDEX66 (select gtFIELD__bitsForTID0__gtAGG____anonstruct_D_Work_4 gtINDEX65)))
(flet ($x363 (= gtINDEX64 (select gtFIELD__bitsForTID0__gtAGG____anonstruct_D_Work_4 gtINDEX63)))
(flet ($x359 (= gtINDEX62 (select gtFIELD__bitsForTID0__gtAGG____anonstruct_D_Work_4 gtINDEX61)))
(flet ($x351 (= gtINDEX56 (select gtFIELD__bitsForTID0__gtAGG____anonstruct_D_Work_4 gtINDEX55)))
(flet ($x347 (= gtINDEX54 (select gtFIELD__bitsForTID0__gtAGG____anonstruct_D_Work_4 gtINDEX53)))
(flet ($x343 (= gtINDEX52 (select gtFIELD__bitsForTID0__gtAGG____anonstruct_D_Work_4 gtINDEX51)))
(flet ($x339 (= gtINDEX50 (select gtFIELD__bitsForTID0__gtAGG____anonstruct_D_Work_4 gtINDEX49)))
(flet ($x335 (= gtINDEX48 (select gtFIELD__bitsForTID0__gtAGG____anonstruct_D_Work_4 gtINDEX47)))
(flet ($x331 (= gtINDEX46 (select gtFIELD__bitsForTID0__gtAGG____anonstruct_D_Work_4 gtINDEX45)))
(flet ($x327 (= gtINDEX44 (select gtFIELD__bitsForTID0__gtAGG____anonstruct_D_Work_4 gtINDEX43)))
(flet ($x323 (= gtINDEX42 (select gtFIELD__bitsForTID0__gtAGG____anonstruct_D_Work_4 gtINDEX41)))
(flet ($x319 (= gtINDEX40 (select gtFIELD__bitsForTID0__gtAGG____anonstruct_D_Work_4 gtINDEX39)))
(flet ($x315 (= gtINDEX38 (select gtFIELD__bitsForTID0__gtAGG____anonstruct_D_Work_4 gtINDEX37)))
(flet ($x310 (= gtINDEX35 (select gtFIELD__bitsForTID0__gtAGG____anonstruct_D_Work_4 gtINDEX34)))
(flet ($x305 (= gtINDEX32 (select gtFIELD__bitsForTID0__gtAGG____anonstruct_D_Work_4 gtINDEX31)))
(flet ($x301 (= gtINDEX30 (select gtFIELD__bitsForTID0__gtAGG____anonstruct_D_Work_4 gtINDEX29)))
(flet ($x292 (= gtINDEX23 (select gtFIELD__bitsForTID0__gtAGG____anonstruct_D_Work_4 gtINDEX22)))
(flet ($x288 (= gtINDEX21 (select gtFIELD__bitsForTID0__gtAGG____anonstruct_D_Work_4 gtINDEX20)))
(flet ($x284 (= gtINDEX19 (select gtFIELD__bitsForTID0__gtAGG____anonstruct_D_Work_4 gtINDEX18)))
(flet ($x280 (= gtINDEX17 (select gtFIELD__bitsForTID0__gtAGG____anonstruct_D_Work_4 gtINDEX16)))
(flet ($x276 (= gtINDEX15 (select gtFIELD__bitsForTID0__gtAGG____anonstruct_D_Work_4 gtINDEX14)))
(flet ($x272 (= gtINDEX13 (select gtFIELD__bitsForTID0__gtAGG____anonstruct_D_Work_4 gtINDEX12)))
(flet ($x268 (= gtINDEX11 (select gtFIELD__bitsForTID0__gtAGG____anonstruct_D_Work_4 gtINDEX10)))
(flet ($x264 (= gtINDEX9 (select gtFIELD__bitsForTID0__gtAGG____anonstruct_D_Work_4 gtINDEX8)))
(flet ($x260 (= gtINDEX7 (select gtFIELD__bitsForTID0__gtAGG____anonstruct_D_Work_4 gtINDEX6)))
(flet ($x256 (= gtINDEX5 (select gtFIELD__bitsForTID0__gtAGG____anonstruct_D_Work_4 gtINDEX4)))
(flet ($x252 (= gtINDEX3 (select gtFIELD__bitsForTID0__gtAGG____anonstruct_D_Work_4 gtINDEX2)))
(flet ($x248 (= gtINDEX1 (select gtFIELD__bitsForTID0__gtAGG____anonstruct_D_Work_4 gtINDEX0)))
(let (?x232 (extract[0:0] bv1[32]))
(let (?x242 (store gtFIELD__is_Eng__gtAGG____anonstruct_bitsForTID0_5_1_ gtINDEX68 ?x232))
(flet ($x467 (iff constraint47 (= gtFIELD__is_Eng__gtAGG____anonstruct_bitsForTID0_5_2_ ?x242)))
(let (?x238 (select gtFIELD__is_Eng__gtAGG____anonstruct_bitsForTID0_5_1_ gtINDEX66))
(let (?x233 (store gtFIELD__is_Eng__gtAGG____anonstruct_bitsForTID0_5 gtINDEX64 ?x232))
(flet ($x461 (iff constraint44 (= gtFIELD__is_Eng__gtAGG____anonstruct_bitsForTID0_5_1_ ?x233)))
(let (?x229 (zero_extend[31] (select gtFIELD__is_Eng__gtAGG____anonstruct_bitsForTID0_5 gtINDEX62)))
(let (?x225 (store gtFIELD__sent__gtAGG____anonstruct_D_Work_4_1_ gtINDEX60 bv0[32]))
(flet ($x457 (iff constraint42 (= gtFIELD__sent__gtAGG____anonstruct_D_Work_4_2_ ?x225)))
(let (?x129 (bvmul bv4294967295[32] bv1[32]))
(flet ($x223 (= (select gtFIELD__sent__gtAGG____anonstruct_D_Work_4_1_ gtINDEX59) ?x129))
(flet ($x219 (= (select gtFIELD__sent__gtAGG____anonstruct_D_Work_4_1_ gtINDEX58) bv9[32]))
(flet ($x215 (= (select gtFIELD__sent__gtAGG____anonstruct_D_Work_4_1_ gtINDEX57) bv4[32]))
(let (?x211 (zero_extend[31] (select gtFIELD__is_Eng__gtAGG____anonstruct_bitsForTID0_5 gtINDEX56)))
(let (?x205 (select gtFIELD__is_active_Eng__gtAGG____anonstruct_bitsForTID0_5 gtINDEX54))
(let (?x199 (select gtFIELD__is_active_PURI__gtAGG____anonstruct_bitsForTID0_5 gtINDEX52))
(let (?x98 (extract[1:0] bv0[32]))
(let (?x196 (store gtFIELD__is_PVRP__gtAGG____anonstruct_bitsForTID0_5_1_ gtINDEX50 ?x98))
(flet ($x443 (iff constraint35 (= gtFIELD__is_PVRP__gtAGG____anonstruct_bitsForTID0_5_2_ ?x196)))
(let (?x191 (select gtFIELD__is_PVRP__gtAGG____anonstruct_bitsForTID0_5_1_ gtINDEX48))
(let (?x186 (select gtFIELD__is_PVRP__gtAGG____anonstruct_bitsForTID0_5_1_ gtINDEX46))
(let (?x181 (select gtFIELD__is_PVRP__gtAGG____anonstruct_bitsForTID0_5_1_ gtINDEX44))
(let (?x176 (select gtFIELD__is_active_PVRP__gtAGG____anonstruct_bitsForTID0_5 gtINDEX42))
(let (?x170 (select gtFIELD__is_active_PPVARP__gtAGG____anonstruct_bitsForTID0_5 gtINDEX40))
(let (?x164 (select gtFIELD__is_active_PLRI__gtAGG____anonstruct_bitsForTID0_5 gtINDEX38))
(let (?x161 (store gtFIELD__temporalCounter_i1__gtAGG____anonstruct_D_Work_4 gtINDEX36 bv0[32]))
(flet ($x429 (iff constraint28 (= gtFIELD__temporalCounter_i1__gtAGG____anonstruct_D_Work_4_1_ ?x161)))
(let (?x158 (store gtFIELD__is_PAVI__gtAGG____anonstruct_bitsForTID0_5 gtINDEX35 (extract[2:0] bv2[32])))
(flet ($x427 (iff constraint27 (= gtFIELD__is_PAVI__gtAGG____anonstruct_bitsForTID0_5_1_ ?x158)))
(flet ($x155 (= gtFIELD__n_t__gtAGG____anonstruct_D_Work_4_1_ (store gtFIELD__n_t__gtAGG____anonstruct_D_Work_4 gtINDEX33 bv0[32])))
(let (?x150 (select gtFIELD__is_PAVI__gtAGG____anonstruct_bitsForTID0_5 gtINDEX32))
(let (?x145 (select gtFIELD__is_active_PAVI__gtAGG____anonstruct_bitsForTID0_5 gtINDEX30))
(flet ($x137 (= gtFIELD__sent__gtAGG____anonstruct_D_Work_4_1_ (store gtFIELD__sent__gtAGG____anonstruct_D_Work_4 gtINDEX28 ?x129)))
(flet ($x134 (= (select gtFIELD__sent__gtAGG____anonstruct_D_Work_4 gtINDEX27) bv1[32]))
(flet ($x130 (= (select gtFIELD__sent__gtAGG____anonstruct_D_Work_4 gtINDEX26) ?x129))
(flet ($x124 (= (select gtFIELD__sent__gtAGG____anonstruct_D_Work_4 gtINDEX25) bv9[32]))
(flet ($x119 (= (select gtFIELD__sent__gtAGG____anonstruct_D_Work_4 gtINDEX24) bv4[32]))
(let (?x114 (zero_extend[31] (select gtFIELD__is_Eng__gtAGG____anonstruct_bitsForTID0_5 gtINDEX23)))
(let (?x108 (select gtFIELD__is_active_Eng__gtAGG____anonstruct_bitsForTID0_5 gtINDEX21))
(let (?x102 (select gtFIELD__is_active_PURI__gtAGG____anonstruct_bitsForTID0_5 gtINDEX19))
(let (?x99 (store gtFIELD__is_PVRP__gtAGG____anonstruct_bitsForTID0_5 gtINDEX17 ?x98))
(flet ($x395 (iff constraint11 (= gtFIELD__is_PVRP__gtAGG____anonstruct_bitsForTID0_5_1_ ?x99)))
(let (?x93 (select gtFIELD__is_PVRP__gtAGG____anonstruct_bitsForTID0_5 gtINDEX15))
(let (?x88 (select gtFIELD__is_PVRP__gtAGG____anonstruct_bitsForTID0_5 gtINDEX13))
(let (?x83 (select gtFIELD__is_PVRP__gtAGG____anonstruct_bitsForTID0_5 gtINDEX11))
(let (?x78 (select gtFIELD__is_active_PVRP__gtAGG____anonstruct_bitsForTID0_5 gtINDEX9))
(let (?x72 (select gtFIELD__is_active_PPVARP__gtAGG____anonstruct_bitsForTID0_5 gtINDEX7))
(let (?x66 (select gtFIELD__is_active_PLRI__gtAGG____anonstruct_bitsForTID0_5 gtINDEX5))
(let (?x56 (zero_extend[29] (select gtFIELD__is_PAVI__gtAGG____anonstruct_bitsForTID0_5 gtINDEX3)))
(let (?x49 (select gtFIELD__is_active_PAVI__gtAGG____anonstruct_bitsForTID0_5 gtINDEX1))
(flet ($x606 (and (iff constraint0 (not (= sfEvent_ bv8[32]))) (iff constraint1 (not (= (zero_extend[31] ?x49) bv0[32]))) (iff constraint2 (= ?x56 bv1[32])) (iff constraint3 (not (= sfEvent_ bv2[32]))) (iff constraint4 (not (= sfEvent_ bv3[32]))) (iff constraint5 (not (not (= (zero_extend[31] ?x66) bv0[32])))) (iff constraint6 (not (not (= (zero_extend[31] ?x72) bv0[32])))) (iff constraint7 (not (= (zero_extend[31] ?x78) bv0[32]))) (iff constraint8 (not (= (zero_extend[30] ?x83) bv1[32]))) (iff constraint9 (not (= (zero_extend[30] ?x88) bv2[32]))) (iff constraint10 (not (= (zero_extend[30] ?x93) bv3[32]))) $x395 (iff constraint12 (not (not (= (zero_extend[31] ?x102) bv0[32])))) (iff constraint13 (not (= (zero_extend[31] ?x108) bv0[32]))) (iff constraint14 (= ?x114 bv1[32])) (iff constraint15 (not $x119)) (iff constraint16 (not $x124)) (iff constraint17 (not $x130)) (iff constraint18 $x134) (iff constraint19 $x137) (iff constraint20 (= sf_previousEvent_1_ sfEvent_)) (iff constraint21 (= sfEvent__1_ bv2[32])) (iff constraint22 (not (= sfEvent__1_ bv8[32]))) (iff constraint23 (not (= (zero_extend[31] ?x145) bv0[32]))) (iff constraint24 (= (zero_extend[29] ?x150) bv1[32])) (iff constraint25 (= sfEvent__1_ bv2[32])) (iff constraint26 $x155) $x427 $x429 (iff constraint29 (not (not (= (zero_extend[31] ?x164) bv0[32])))) (iff constraint30 (not (not (= (zero_extend[31] ?x170) bv0[32])))) (iff constraint31 (not (= (zero_extend[31] ?x176) bv0[32]))) (iff constraint32 (not (= (zero_extend[30] ?x181) bv1[32]))) (iff constraint33 (not (= (zero_extend[30] ?x186) bv2[32]))) (iff constraint34 (not (= (zero_extend[30] ?x191) bv3[32]))) $x443 (iff constraint36 (not (not (= (zero_extend[31] ?x199) bv0[32])))) (iff constraint37 (not (= (zero_extend[31] ?x205) bv0[32]))) (iff constraint38 (= ?x211 bv1[32])) (iff constraint39 (not $x215)) (iff constraint40 (not $x219)) (iff constraint41 $x223) $x457 (iff constraint43 (= ?x229 bv1[32])) $x461 (iff constraint45 (= sfEvent__2_ sf_previousEvent_1_)) (iff constraint46 (= (zero_extend[31] ?x238) bv1[32])) $x467 (iff constraint48 (= gtINDEX0 gtAGG__rtDWork)) (iff constraint49 $x248) (iff constraint50 (= gtINDEX2 gtAGG__rtDWork)) (iff constraint51 $x252) (iff constraint52 (= gtINDEX4 gtAGG__rtDWork)) (iff constraint53 $x256) (iff constraint54 (= gtINDEX6 gtAGG__rtDWork)) (iff constraint55 $x260) (iff constraint56 (= gtINDEX8 gtAGG__rtDWork)) (iff constraint57 $x264) (iff constraint58 (= gtINDEX10 gtAGG__rtDWork)) (iff constraint59 $x268) (iff constraint60 (= gtINDEX12 gtAGG__rtDWork)) (iff constraint61 $x272) (iff constraint62 (= gtINDEX14 gtAGG__rtDWork)) (iff constraint63 $x276) (iff constraint64 (= gtINDEX16 gtAGG__rtDWork)) (iff constraint65 $x280) (iff constraint66 (= gtINDEX18 gtAGG__rtDWork)) (iff constraint67 $x284) (iff constraint68 (= gtINDEX20 gtAGG__rtDWork)) (iff constraint69 $x288) (iff constraint70 (= gtINDEX22 gtAGG__rtDWork)) (iff constraint71 $x292) (iff constraint72 (= gtINDEX24 gtAGG__rtDWork)) (iff constraint73 (= gtINDEX25 gtAGG__rtDWork)) (iff constraint74 (= gtINDEX26 gtAGG__rtDWork)) (iff constraint75 (= gtINDEX27 gtAGG__rtDWork)) (iff constraint76 (= gtINDEX28 gtAGG__rtDWork)) (iff constraint77 (= gtINDEX29 gtAGG__rtDWork)) (iff constraint78 $x301) (iff constraint79 (= gtINDEX31 gtAGG__rtDWork)) (iff constraint80 $x305) (iff constraint81 (= gtINDEX33 gtAGG__rtDWork)) (iff constraint82 (= gtINDEX34 gtAGG__rtDWork)) (iff constraint83 $x310) (iff constraint84 (= gtINDEX36 gtAGG__rtDWork)) (iff constraint85 (= gtINDEX37 gtAGG__rtDWork)) (iff constraint86 $x315) (iff constraint87 (= gtINDEX39 gtAGG__rtDWork)) (iff constraint88 $x319) (iff constraint89 (= gtINDEX41 gtAGG__rtDWork)) (iff constraint90 $x323) (iff constraint91 (= gtINDEX43 gtAGG__rtDWork)) (iff constraint92 $x327) (iff constraint93 (= gtINDEX45 gtAGG__rtDWork)) (iff constraint94 $x331) (iff constraint95 (= gtINDEX47 gtAGG__rtDWork)) (iff constraint96 $x335) (iff constraint97 (= gtINDEX49 gtAGG__rtDWork)) (iff constraint98 $x339) (iff constraint99 (= gtINDEX51 gtAGG__rtDWork)) (iff constraint100 $x343) (iff constraint101 (= gtINDEX53 gtAGG__rtDWork)) (iff constraint102 $x347) (iff constraint103 (= gtINDEX55 gtAGG__rtDWork)) (iff constraint104 $x351) (iff constraint105 (= gtINDEX57 gtAGG__rtDWork)) (iff constraint106 (= gtINDEX58 gtAGG__rtDWork)) (iff constraint107 (= gtINDEX59 gtAGG__rtDWork)) (iff constraint108 (= gtINDEX60 gtAGG__rtDWork)) (iff constraint109 (= gtINDEX61 gtAGG__rtDWork)) (iff constraint110 $x359) (iff constraint111 (= gtINDEX63 gtAGG__rtDWork)) (iff constraint112 $x363) (iff constraint113 (= gtINDEX65 gtAGG__rtDWork)) (iff constraint114 $x367) (iff constraint115 (= gtINDEX67 gtAGG__rtDWork)) (iff constraint116 $x371)))
(and $x606 $x607))))))))))))))))))))))))))))))))))))))))))))))))))))))))))))))))))))))))))))))))))
)
